problems/csplib-prob056/sonet-models/noch/O2/lingeling/model_6_1-s1ring11-solution000001.eprime-solution
language ESSENCE' 1.0

letting network_ExplicitWithRepetitionR6_Flag be 4
letting network_ExplicitWithRepetitionR6_Values_ExplicitVarSizeWithDummy be
        [[1, 2, 6, 7; int(1..4)], [1, 5, 8, 8; int(1..4)], [3, 4, 5, 6; int(1..4)], [8, 8, 8, 8; int(1..4)],
         [1, 1, 1, 1; int(1..4)], [1, 1, 1, 1; int(1..4)], [1, 1, 1, 1; int(1..4)], [1, 1, 1, 1; int(1..4)],
         [1, 1, 1, 1; int(1..4)], [1, 1, 1, 1; int(1..4)], [1, 1, 1, 1; int(1..4)], [1, 1, 1, 1; int(1..4)],
         [1, 1, 1, 1; int(1..4)], [1, 1, 1, 1; int(1..4)], [1, 1, 1, 1; int(1..4)], [1, 1, 1, 1; int(1..4)]; int(1..16)]
