problems/csplib-prob056/sonet-models/noch/O2/minion/model_6_1-s1ring11-solution000001.solution
language Essence 1.3

letting network be mset({}, {1, 2, 5, 6}, {1, 7}, {3, 4, 5, 6})
$ Here is a simple "visualisation" for the value above.
$ 
$ 1 2 5 6
$ 1 7
$ 3 4 5 6

